NAME : XML100_3325_04
DIMENSION : 101
NB_CLUSTERS : 11
CLUSTERING_ALG : KMeans
CLUSTERING_PARAMS : k(10)
CLUSTERS
1 0
2 16 26 28 43 52 69 70 73
3 14 20 21 24 32 38 39 46 74 83 100
4 1 7 17 23 31 34 35 42 58 59 71 77 81 84 87
5 12 33 37 51 76 96 98
6 15 22 47 53 56 61 64 67 89 95 97
7 9 54 62 63 68
8 8 10 27 29 41 49 66 72 78 80 86 90
9 3 11 13 18 30 48 50 57 82 93 94
10 2 4 5 6 19 25 36 44 45 60 79 88 91 92 99
11 40 55 65 75 85
EOF